\ SCIP STATISTICS
\   Problem name     : SetCover-20-40
\   Variables        : 40 (40 binary, 0 integer, 0 implicit integer, 0 continuous)
\   Constraints      : 20
Minimize
 Obj: +50 x0 +48 x1 +99 x2 +22 x3 +6 x4 +63 x5 +79 x6 +34 x7 +45 x8 +48 x9 +54 x10 +38 x11 +72 x12 +45 x13
      +33 x14 +57 x15 +88 x16 +35 x17 +70 x18 +42 x19 +74 x20 +85 x21 +30 x22 +57 x23 +41 x24 +95 x25
      +24 x26 +67 x27 +43 x28 +35 x29 +66 x30 +43 x31 +25 x32 +73 x33 +86 x34 +71 x35 +63 x36 +97 x37
      +2 x38 +63 x39
Subject to
 c0: +1 x0 +1 x3 +1 x5 +1 x7 +1 x9 +1 x10 +1 x12 +1 x13 +1 x14 +1 x17 +1 x18 +1 x22 +1 x23 +1 x25 +1 x26
  +1 x27 +1 x28 +1 x31 +1 x34 +1 x37 >= +1
 c1: +1 x1 +1 x5 +1 x8 +1 x12 +1 x20 +1 x26 +1 x28 +1 x31 +1 x32 +1 x37 +1 x39 >= +1
 c2: +1 x1 +1 x2 +1 x3 +1 x8 +1 x9 +1 x11 +1 x13 +1 x15 +1 x16 +1 x17 +1 x21 +1 x26 +1 x29 +1 x34 >= +1
 c3: +1 x1 +1 x4 +1 x7 +1 x12 +1 x13 +1 x15 +1 x17 +1 x20 +1 x22 +1 x24 +1 x25 +1 x28 +1 x30 +1 x31 +1 x32
  +1 x34 +1 x36 +1 x38 >= +1
 c4: +1 x1 +1 x2 +1 x3 +1 x6 +1 x7 +1 x8 +1 x11 +1 x13 +1 x22 +1 x24 +1 x25 +1 x27 +1 x29 +1 x32 +1 x34
  +1 x35 >= +1
 c5: +1 x0 +1 x11 +1 x12 +1 x13 +1 x14 +1 x15 +1 x16 +1 x23 +1 x26 +1 x28 +1 x30 +1 x31 +1 x32 +1 x36
  +1 x37 +1 x38 +1 x39 >= +1
 c6: +1 x0 +1 x5 +1 x10 +1 x11 +1 x14 +1 x15 +1 x16 +1 x17 +1 x20 +1 x25 +1 x27 +1 x29 +1 x30 +1 x31 +1 x32
  +1 x33 +1 x34 +1 x36 +1 x37 +1 x38 >= +1
 c7: +1 x1 +1 x13 +1 x16 +1 x17 +1 x19 +1 x21 +1 x24 +1 x26 +1 x27 +1 x29 +1 x30 +1 x33 +1 x35 >= +1
 c8: +1 x1 +1 x2 +1 x3 +1 x4 +1 x5 +1 x7 +1 x9 +1 x16 +1 x20 +1 x31 +1 x33 +1 x34 +1 x36 +1 x37 +1 x39
  >= +1
 c9: +1 x0 +1 x3 +1 x7 +1 x10 +1 x14 +1 x15 +1 x18 +1 x20 +1 x21 +1 x22 +1 x23 +1 x24 +1 x27 +1 x28 +1 x30
  +1 x33 +1 x35 +1 x36 >= +1
 c10: +1 x0 +1 x3 +1 x5 +1 x7 +1 x9 +1 x12 +1 x13 +1 x18 +1 x20 +1 x21 +1 x24 +1 x26 +1 x27 +1 x28 +1 x30
  +1 x31 +1 x34 +1 x35 +1 x38 >= +1
 c11: +1 x1 +1 x2 +1 x4 +1 x5 +1 x8 +1 x9 +1 x11 +1 x19 +1 x20 +1 x25 +1 x27 +1 x29 +1 x30 +1 x32 +1 x35
  +1 x36 +1 x37 +1 x39 >= +1
 c12: +1 x0 +1 x2 +1 x3 +1 x8 +1 x9 +1 x12 +1 x14 +1 x17 +1 x18 +1 x21 +1 x22 +1 x27 +1 x28 +1 x29 +1 x38
  +1 x39 >= +1
 c13: +1 x1 +1 x5 +1 x9 +1 x10 +1 x11 +1 x12 +1 x13 +1 x14 +1 x15 +1 x18 +1 x22 +1 x23 +1 x24 +1 x25 +1 x26
  +1 x30 +1 x36 +1 x37 >= +1
 c14: +1 x1 +1 x2 +1 x3 +1 x4 +1 x5 +1 x7 +1 x8 +1 x10 +1 x11 +1 x12 +1 x17 +1 x22 +1 x27 +1 x33 +1 x36
  +1 x37 +1 x38 >= +1
 c15: +1 x0 +1 x1 +1 x10 +1 x18 +1 x25 +1 x28 +1 x31 +1 x33 +1 x35 +1 x37 +1 x38 >= +1
 c16: +1 x0 +1 x6 +1 x8 +1 x9 +1 x12 +1 x13 +1 x17 +1 x19 +1 x21 +1 x28 +1 x30 +1 x31 +1 x35 +1 x36 >= +1
 c17: +1 x1 +1 x2 +1 x7 +1 x8 +1 x9 +1 x11 +1 x12 +1 x16 +1 x17 +1 x21 +1 x22 +1 x25 +1 x27 +1 x32 +1 x34
  +1 x35 +1 x38 >= +1
 c18: +1 x1 +1 x2 +1 x4 +1 x13 +1 x15 +1 x16 +1 x24 +1 x25 +1 x26 +1 x29 +1 x32 +1 x35 >= +1
 c19: +1 x0 +1 x2 +1 x3 +1 x6 +1 x7 +1 x9 +1 x12 +1 x14 +1 x15 +1 x23 +1 x26 +1 x28 +1 x29 +1 x32 +1 x33
  +1 x35 >= +1
Bounds
 0 <= x0 <= 1
 0 <= x1 <= 1
 0 <= x2 <= 1
 0 <= x3 <= 1
 0 <= x4 <= 1
 0 <= x5 <= 1
 0 <= x6 <= 1
 0 <= x7 <= 1
 0 <= x8 <= 1
 0 <= x9 <= 1
 0 <= x10 <= 1
 0 <= x11 <= 1
 0 <= x12 <= 1
 0 <= x13 <= 1
 0 <= x14 <= 1
 0 <= x15 <= 1
 0 <= x16 <= 1
 0 <= x17 <= 1
 0 <= x18 <= 1
 0 <= x19 <= 1
 0 <= x20 <= 1
 0 <= x21 <= 1
 0 <= x22 <= 1
 0 <= x23 <= 1
 0 <= x24 <= 1
 0 <= x25 <= 1
 0 <= x26 <= 1
 0 <= x27 <= 1
 0 <= x28 <= 1
 0 <= x29 <= 1
 0 <= x30 <= 1
 0 <= x31 <= 1
 0 <= x32 <= 1
 0 <= x33 <= 1
 0 <= x34 <= 1
 0 <= x35 <= 1
 0 <= x36 <= 1
 0 <= x37 <= 1
 0 <= x38 <= 1
 0 <= x39 <= 1
Binaries
 x0 x1 x2 x3 x4 x5 x6 x7 x8 x9 x10 x11 x12 x13 x14 x15 x16 x17 x18 x19 x20 x21 x22 x23 x24 x25 x26 x27
 x28 x29 x30 x31 x32 x33 x34 x35 x36 x37 x38 x39
End
